benchmarks_vrp/CMT11/fixed_c/CMT11_1.vrp
NAME: CMT11_1
TYPE: CVRP
COMMENT: 1042.11 - Cluster Nr.1
DIMENSION: 15
CAPACITY: 200
EDGE_WEIGHT_TYPE: EUC_2D
NODE_COORD_TYPE: TWOD_COORDS
NODE_COORD_SECTION: 
11 54 90
7 54 86
9 37 83
2 10 45
14 50 80
8 35 87
13 44 86
12 46 83
5 46 89
3 48 83
15 50 88
1 46 89
10 50 85
6 46 87
4 35 85
DEPOT_SECTION: 
2
-1
DEMAND_SECTION: 
6 11
13 7
10 28
11 10
2 0
1 13
7 3
5 35
8 16
14 13
12 9
9 17
4 14
3 5
15 7
EOF
