benchmarks_vrp/CMT11/fixed_c/CMT11_1.tour
NAME: CMT11_1 solution
TYPE: TOUR
TOUR_SECTION:
2 9 4 8 13 6 5 1 15 11 7 10 14 3 12 -1
-1
EOF